NAME : eil76
COMMENT : 76-city
TYPE : TOUR
DIMENSION : 76
TOUR_LENGTH : 546
ERROR : 0.0148699
TOUR_SECTION
27
21
63
41
42
40
55
22
48
23
17
49
24
54
30
9
37
64
10
65
58
13
52
34
6
25
66
75
74
3
44
28
26
51
33
45
7
18
53
12
56
14
4
36
19
69
59
70
35
68
60
20
46
47
29
73
1
67
5
50
16
39
11
57
71
38
8
31
43
2
15
62
32
72
0
61
-1
EOF
